60
1 0 1
2 0 1
2 1 1
3 0 2
3 1 2
3 2 2
4 0 3
4 1 3
4 2 3
4 3 1
5 0 2
5 1 3
5 2 3
5 3 2
5 4 1
6 0 3
6 1 2
6 2 1
6 3 1
6 4 1
6 5 2
7 0 3
7 1 3
7 2 3
7 3 2
7 4 2
7 5 3
7 6 1
8 0 2
8 1 2
8 2 3
8 3 3
8 4 2
8 5 1
8 6 3
8 7 1
9 0 1
9 1 3
9 2 3
9 3 1
9 4 1
9 5 2
9 6 2
9 7 2
9 8 3
10 0 3
10 1 1
10 2 2
10 3 3
10 4 2
10 5 3
10 6 2
10 7 3
10 8 2
10 9 1
11 0 1
11 1 1
11 2 1
11 3 3
11 4 2
11 5 2
11 6 3
11 7 1
11 8 2
11 9 3
11 10 1
12 0 3
12 1 2
12 2 2
12 3 1
12 4 2
12 5 3
12 6 1
12 7 2
12 8 3
12 9 2
12 10 3
12 11 2
13 0 2
13 1 1
13 2 3
13 3 1
13 4 2
13 5 3
13 6 1
13 7 3
13 8 1
13 9 2
13 10 2
13 11 2
13 12 2
14 0 1
14 1 3
14 2 3
14 3 1
14 4 1
14 5 1
14 6 2
14 7 2
14 8 2
14 9 1
14 10 2
14 11 1
14 12 2
14 13 3
15 0 3
15 1 3
15 2 1
15 3 1
15 4 3
15 5 1
15 6 2
15 7 3
15 8 3
15 9 2
15 10 3
15 11 1
15 12 2
15 13 3
15 14 2
16 0 2
16 1 2
16 2 2
16 3 3
16 4 1
16 5 3
16 6 2
16 7 1
16 8 1
16 9 1
16 10 1
16 11 2
16 12 3
16 13 2
16 14 1
16 15 3
17 0 3
17 1 1
17 2 1
17 3 1
17 4 2
17 5 3
17 6 3
17 7 1
17 8 2
17 9 1
17 10 2
17 11 3
17 12 3
17 13 3
17 14 3
17 15 2
17 16 3
18 0 3
18 1 2
18 2 1
18 3 2
18 4 2
18 5 1
18 6 2
18 7 3
18 8 2
18 9 1
18 10 3
18 11 3
18 12 1
18 13 1
18 14 3
18 15 3
18 16 3
18 17 1
19 0 1
19 1 1
19 2 1
19 3 3
19 4 3
19 5 3
19 6 3
19 7 2
19 8 3
19 9 2
19 10 2
19 11 2
19 12 3
19 13 2
19 14 2
19 15 1
19 16 2
19 17 3
19 18 3
20 0 1
20 1 1
20 2 2
20 3 2
20 4 2
20 5 3
20 6 1
20 7 1
20 8 2
20 9 1
20 10 1
20 11 3
20 12 3
20 13 3
20 14 3
20 15 1
20 16 1
20 17 3
20 18 2
20 19 3
21 0 3
21 1 1
21 2 3
21 3 3
21 4 2
21 5 3
21 6 1
21 7 2
21 8 1
21 9 2
21 10 2
21 11 1
21 12 1
21 13 3
21 14 2
21 15 3
21 16 1
21 17 3
21 18 2
21 19 3
21 20 2
22 0 2
22 1 2
22 2 1
22 3 3
22 4 3
22 5 2
22 6 1
22 7 1
22 8 1
22 9 2
22 10 2
22 11 1
22 12 1
22 13 3
22 14 2
22 15 3
22 16 3
22 17 3
22 18 3
22 19 3
22 20 1
22 21 3
23 0 3
23 1 1
23 2 3
23 3 1
23 4 1
23 5 3
23 6 1
23 7 3
23 8 1
23 9 1
23 10 2
23 11 2
23 12 3
23 13 3
23 14 3
23 15 2
23 16 3
23 17 1
23 18 2
23 19 1
23 20 2
23 21 3
23 22 1
24 0 2
24 1 1
24 2 2
24 3 2
24 4 2
24 5 3
24 6 2
24 7 1
24 8 1
24 9 2
24 10 3
24 11 3
24 12 2
24 13 3
24 14 2
24 15 2
24 16 3
24 17 3
24 18 1
24 19 2
24 20 1
24 21 1
24 22 1
24 23 3
25 0 1
25 1 1
25 2 1
25 3 3
25 4 1
25 5 2
25 6 2
25 7 1
25 8 1
25 9 2
25 10 3
25 11 3
25 12 1
25 13 1
25 14 3
25 15 3
25 16 2
25 17 1
25 18 2
25 19 1
25 20 2
25 21 2
25 22 3
25 23 3
25 24 3
26 0 2
26 1 3
26 2 2
26 3 1
26 4 1
26 5 3
26 6 3
26 7 2
26 8 3
26 9 3
26 10 3
26 11 2
26 12 3
26 13 3
26 14 3
26 15 1
26 16 3
26 17 2
26 18 2
26 19 2
26 20 1
26 21 2
26 22 2
26 23 3
26 24 2
26 25 1
27 0 2
27 1 3
27 2 1
27 3 3
27 4 2
27 5 3
27 6 2
27 7 3
27 8 2
27 9 3
27 10 2
27 11 2
27 12 3
27 13 2
27 14 2
27 15 2
27 16 2
27 17 2
27 18 1
27 19 1
27 20 2
27 21 3
27 22 2
27 23 1
27 24 1
27 25 3
27 26 1
28 0 2
28 1 1
28 2 1
28 3 1
28 4 2
28 5 1
28 6 2
28 7 2
28 8 3
28 9 2
28 10 2
28 11 3
28 12 2
28 13 1
28 14 1
28 15 2
28 16 3
28 17 1
28 18 1
28 19 1
28 20 2
28 21 1
28 22 1
28 23 2
28 24 1
28 25 2
28 26 3
28 27 3
29 0 2
29 1 2
29 2 1
29 3 2
29 4 3
29 5 1
29 6 2
29 7 1
29 8 1
29 9 1
29 10 1
29 11 1
29 12 1
29 13 1
29 14 1
29 15 1
29 16 2
29 17 2
29 18 3
29 19 1
29 20 3
29 21 2
29 22 1
29 23 2
29 24 1
29 25 3
29 26 1
29 27 3
29 28 2
30 0 2
30 1 1
30 2 2
30 3 1
30 4 1
30 5 1
30 6 1
30 7 1
30 8 1
30 9 2
30 10 1
30 11 1
30 12 2
30 13 3
30 14 1
30 15 3
30 16 3
30 17 2
30 18 2
30 19 2
30 20 3
30 21 1
30 22 1
30 23 2
30 24 1
30 25 2
30 26 1
30 27 2
30 28 2
30 29 3
31 0 2
31 1 2
31 2 2
31 3 2
31 4 1
31 5 1
31 6 3
31 7 3
31 8 3
31 9 2
31 10 2
31 11 2
31 12 3
31 13 3
31 14 3
31 15 1
31 16 1
31 17 3
31 18 1
31 19 3
31 20 1
31 21 3
31 22 3
31 23 1
31 24 3
31 25 1
31 26 2
31 27 1
31 28 2
31 29 1
31 30 2
32 0 1
32 1 1
32 2 2
32 3 3
32 4 3
32 5 3
32 6 2
32 7 3
32 8 2
32 9 3
32 10 3
32 11 3
32 12 3
32 13 3
32 14 1
32 15 1
32 16 3
32 17 1
32 18 2
32 19 3
32 20 2
32 21 3
32 22 3
32 23 3
32 24 1
32 25 3
32 26 2
32 27 1
32 28 1
32 29 2
32 30 1
32 31 1
33 0 2
33 1 3
33 2 2
33 3 1
33 4 1
33 5 2
33 6 2
33 7 1
33 8 2
33 9 1
33 10 3
33 11 1
33 12 1
33 13 1
33 14 3
33 15 3
33 16 3
33 17 2
33 18 1
33 19 1
33 20 3
33 21 3
33 22 1
33 23 1
33 24 2
33 25 3
33 26 2
33 27 3
33 28 1
33 29 1
33 30 3
33 31 3
33 32 1
34 0 1
34 1 2
34 2 3
34 3 3
34 4 3
34 5 1
34 6 1
34 7 1
34 8 3
34 9 2
34 10 2
34 11 3
34 12 2
34 13 3
34 14 3
34 15 1
34 16 3
34 17 3
34 18 3
34 19 1
34 20 3
34 21 2
34 22 1
34 23 2
34 24 3
34 25 3
34 26 1
34 27 2
34 28 1
34 29 3
34 30 1
34 31 3
34 32 3
34 33 3
35 0 2
35 1 3
35 2 2
35 3 3
35 4 1
35 5 3
35 6 2
35 7 2
35 8 2
35 9 1
35 10 3
35 11 3
35 12 2
35 13 1
35 14 2
35 15 3
35 16 3
35 17 1
35 18 3
35 19 3
35 20 3
35 21 2
35 22 2
35 23 3
35 24 3
35 25 1
35 26 2
35 27 2
35 28 3
35 29 3
35 30 1
35 31 1
35 32 3
35 33 3
35 34 1
36 0 3
36 1 1
36 2 3
36 3 3
36 4 1
36 5 1
36 6 1
36 7 2
36 8 2
36 9 3
36 10 2
36 11 1
36 12 3
36 13 2
36 14 3
36 15 2
36 16 2
36 17 3
36 18 1
36 19 3
36 20 1
36 21 3
36 22 2
36 23 3
36 24 3
36 25 3
36 26 2
36 27 3
36 28 3
36 29 2
36 30 2
36 31 1
36 32 2
36 33 3
36 34 3
36 35 2
37 0 1
37 1 1
37 2 1
37 3 3
37 4 1
37 5 1
37 6 3
37 7 2
37 8 2
37 9 1
37 10 3
37 11 2
37 12 3
37 13 2
37 14 1
37 15 3
37 16 2
37 17 1
37 18 1
37 19 1
37 20 2
37 21 1
37 22 2
37 23 2
37 24 2
37 25 2
37 26 1
37 27 3
37 28 3
37 29 2
37 30 2
37 31 2
37 32 3
37 33 2
37 34 2
37 35 1
37 36 3
38 0 3
38 1 3
38 2 1
38 3 1
38 4 3
38 5 1
38 6 3
38 7 1
38 8 1
38 9 1
38 10 1
38 11 1
38 12 1
38 13 2
38 14 1
38 15 1
38 16 2
38 17 2
38 18 2
38 19 3
38 20 1
38 21 1
38 22 3
38 23 2
38 24 3
38 25 3
38 26 3
38 27 1
38 28 1
38 29 1
38 30 1
38 31 1
38 32 1
38 33 3
38 34 1
38 35 3
38 36 2
38 37 3
39 0 1
39 1 3
39 2 2
39 3 3
39 4 3
39 5 1
39 6 3
39 7 2
39 8 2
39 9 3
39 10 1
39 11 1
39 12 1
39 13 3
39 14 1
39 15 1
39 16 3
39 17 1
39 18 1
39 19 1
39 20 3
39 21 1
39 22 3
39 23 3
39 24 1
39 25 3
39 26 3
39 27 1
39 28 1
39 29 2
39 30 2
39 31 2
39 32 2
39 33 3
39 34 1
39 35 3
39 36 1
39 37 3
39 38 2
40 0 1
40 1 2
40 2 3
40 3 1
40 4 3
40 5 2
40 6 1
40 7 2
40 8 2
40 9 3
40 10 1
40 11 3
40 12 3
40 13 2
40 14 3
40 15 2
40 16 2
40 17 2
40 18 3
40 19 3
40 20 3
40 21 1
40 22 1
40 23 2
40 24 3
40 25 2
40 26 2
40 27 2
40 28 1
40 29 2
40 30 1
40 31 1
40 32 3
40 33 3
40 34 2
40 35 1
40 36 3
40 37 3
40 38 3
40 39 3
41 0 3
41 1 3
41 2 3
41 3 1
41 4 1
41 5 2
41 6 2
41 7 3
41 8 2
41 9 3
41 10 1
41 11 3
41 12 3
41 13 2
41 14 1
41 15 1
41 16 3
41 17 3
41 18 3
41 19 1
41 20 3
41 21 2
41 22 1
41 23 3
41 24 3
41 25 3
41 26 1
41 27 3
41 28 1
41 29 2
41 30 2
41 31 1
41 32 1
41 33 1
41 34 1
41 35 2
41 36 2
41 37 2
41 38 3
41 39 1
41 40 1
42 0 3
42 1 3
42 2 1
42 3 2
42 4 3
42 5 1
42 6 2
42 7 2
42 8 3
42 9 2
42 10 2
42 11 2
42 12 1
42 13 1
42 14 3
42 15 2
42 16 2
42 17 1
42 18 3
42 19 2
42 20 2
42 21 3
42 22 2
42 23 3
42 24 2
42 25 3
42 26 3
42 27 1
42 28 3
42 29 1
42 30 2
42 31 3
42 32 1
42 33 2
42 34 2
42 35 3
42 36 3
42 37 3
42 38 2
42 39 2
42 40 3
42 41 2
43 0 3
43 1 3
43 2 2
43 3 2
43 4 2
43 5 2
43 6 2
43 7 2
43 8 2
43 9 2
43 10 3
43 11 3
43 12 3
43 13 2
43 14 3
43 15 2
43 16 2
43 17 1
43 18 3
43 19 3
43 20 1
43 21 1
43 22 1
43 23 3
43 24 3
43 25 1
43 26 3
43 27 3
43 28 3
43 29 2
43 30 3
43 31 3
43 32 2
43 33 3
43 34 3
43 35 2
43 36 2
43 37 2
43 38 1
43 39 2
43 40 3
43 41 3
43 42 1
44 0 1
44 1 3
44 2 1
44 3 1
44 4 3
44 5 3
44 6 1
44 7 1
44 8 2
44 9 3
44 10 2
44 11 2
44 12 1
44 13 1
44 14 3
44 15 2
44 16 3
44 17 3
44 18 3
44 19 3
44 20 3
44 21 2
44 22 2
44 23 2
44 24 1
44 25 2
44 26 1
44 27 2
44 28 1
44 29 2
44 30 2
44 31 3
44 32 1
44 33 1
44 34 2
44 35 2
44 36 3
44 37 1
44 38 2
44 39 3
44 40 2
44 41 2
44 42 3
44 43 3
45 0 3
45 1 2
45 2 2
45 3 3
45 4 3
45 5 3
45 6 3
45 7 2
45 8 2
45 9 2
45 10 2
45 11 1
45 12 2
45 13 3
45 14 1
45 15 2
45 16 2
45 17 2
45 18 2
45 19 3
45 20 3
45 21 3
45 22 2
45 23 3
45 24 2
45 25 1
45 26 3
45 27 1
45 28 3
45 29 2
45 30 1
45 31 1
45 32 2
45 33 2
45 34 1
45 35 3
45 36 3
45 37 1
45 38 3
45 39 1
45 40 1
45 41 3
45 42 1
45 43 2
45 44 1
46 0 2
46 1 3
46 2 1
46 3 1
46 4 2
46 5 3
46 6 2
46 7 3
46 8 3
46 9 3
46 10 3
46 11 3
46 12 1
46 13 3
46 14 1
46 15 3
46 16 1
46 17 1
46 18 1
46 19 1
46 20 2
46 21 2
46 22 3
46 23 2
46 24 3
46 25 3
46 26 1
46 27 2
46 28 1
46 29 2
46 30 1
46 31 1
46 32 2
46 33 1
46 34 2
46 35 2
46 36 2
46 37 1
46 38 3
46 39 3
46 40 1
46 41 1
46 42 3
46 43 1
46 44 3
46 45 1
47 0 1
47 1 1
47 2 1
47 3 3
47 4 2
47 5 1
47 6 3
47 7 1
47 8 2
47 9 2
47 10 2
47 11 3
47 12 3
47 13 2
47 14 1
47 15 2
47 16 1
47 17 3
47 18 2
47 19 2
47 20 2
47 21 1
47 22 2
47 23 3
47 24 1
47 25 3
47 26 3
47 27 1
47 28 1
47 29 3
47 30 2
47 31 3
47 32 3
47 33 1
47 34 3
47 35 2
47 36 2
47 37 1
47 38 3
47 39 2
47 40 3
47 41 1
47 42 3
47 43 2
47 44 2
47 45 1
47 46 3
48 0 1
48 1 2
48 2 2
48 3 3
48 4 1
48 5 3
48 6 2
48 7 2
48 8 2
48 9 1
48 10 3
48 11 2
48 12 2
48 13 2
48 14 2
48 15 2
48 16 1
48 17 1
48 18 2
48 19 2
48 20 2
48 21 2
48 22 3
48 23 1
48 24 1
48 25 2
48 26 2
48 27 2
48 28 3
48 29 1
48 30 3
48 31 2
48 32 1
48 33 2
48 34 2
48 35 1
48 36 2
48 37 2
48 38 1
48 39 3
48 40 3
48 41 1
48 42 2
48 43 1
48 44 3
48 45 2
48 46 2
48 47 3
49 0 2
49 1 2
49 2 1
49 3 3
49 4 3
49 5 1
49 6 2
49 7 1
49 8 1
49 9 2
49 10 3
49 11 1
49 12 2
49 13 3
49 14 1
49 15 3
49 16 3
49 17 2
49 18 2
49 19 3
49 20 2
49 21 1
49 22 1
49 23 3
49 24 3
49 25 2
49 26 2
49 27 3
49 28 2
49 29 3
49 30 3
49 31 2
49 32 1
49 33 3
49 34 3
49 35 3
49 36 3
49 37 2
49 38 1
49 39 1
49 40 3
49 41 1
49 42 3
49 43 2
49 44 2
49 45 3
49 46 1
49 47 3
49 48 2
50 0 3
50 1 2
50 2 1
50 3 3
50 4 1
50 5 3
50 6 2
50 7 2
50 8 3
50 9 1
50 10 1
50 11 1
50 12 3
50 13 3
50 14 1
50 15 1
50 16 2
50 17 3
50 18 2
50 19 1
50 20 1
50 21 2
50 22 1
50 23 3
50 24 1
50 25 2
50 26 3
50 27 1
50 28 3
50 29 1
50 30 1
50 31 2
50 32 1
50 33 2
50 34 2
50 35 3
50 36 3
50 37 2
50 38 2
50 39 3
50 40 1
50 41 3
50 42 3
50 43 3
50 44 3
50 45 3
50 46 1
50 47 3
50 48 2
50 49 3
51 0 1
51 1 3
51 2 3
51 3 1
51 4 2
51 5 2
51 6 3
51 7 3
51 8 3
51 9 1
51 10 1
51 11 2
51 12 3
51 13 2
51 14 3
51 15 2
51 16 3
51 17 1
51 18 3
51 19 1
51 20 1
51 21 1
51 22 1
51 23 3
51 24 3
51 25 3
51 26 1
51 27 2
51 28 2
51 29 3
51 30 3
51 31 1
51 32 2
51 33 1
51 34 3
51 35 3
51 36 1
51 37 2
51 38 1
51 39 3
51 40 1
51 41 1
51 42 1
51 43 1
51 44 3
51 45 2
51 46 1
51 47 2
51 48 3
51 49 3
51 50 2
52 0 2
52 1 3
52 2 1
52 3 1
52 4 2
52 5 2
52 6 1
52 7 1
52 8 3
52 9 3
52 10 1
52 11 3
52 12 2
52 13 3
52 14 3
52 15 3
52 16 1
52 17 2
52 18 2
52 19 1
52 20 1
52 21 1
52 22 2
52 23 2
52 24 3
52 25 2
52 26 2
52 27 3
52 28 3
52 29 2
52 30 1
52 31 1
52 32 3
52 33 2
52 34 1
52 35 2
52 36 1
52 37 2
52 38 2
52 39 2
52 40 3
52 41 2
52 42 2
52 43 3
52 44 3
52 45 3
52 46 3
52 47 3
52 48 2
52 49 3
52 50 3
52 51 3
53 0 2
53 1 1
53 2 3
53 3 1
53 4 1
53 5 1
53 6 3
53 7 2
53 8 3
53 9 1
53 10 2
53 11 2
53 12 3
53 13 3
53 14 1
53 15 1
53 16 3
53 17 3
53 18 1
53 19 2
53 20 1
53 21 1
53 22 3
53 23 2
53 24 1
53 25 2
53 26 3
53 27 1
53 28 3
53 29 3
53 30 1
53 31 1
53 32 3
53 33 2
53 34 3
53 35 3
53 36 2
53 37 3
53 38 3
53 39 1
53 40 1
53 41 2
53 42 2
53 43 2
53 44 1
53 45 2
53 46 2
53 47 2
53 48 3
53 49 1
53 50 1
53 51 3
53 52 1
54 0 3
54 1 1
54 2 1
54 3 1
54 4 2
54 5 1
54 6 2
54 7 1
54 8 1
54 9 1
54 10 3
54 11 3
54 12 3
54 13 3
54 14 2
54 15 2
54 16 2
54 17 3
54 18 1
54 19 3
54 20 2
54 21 2
54 22 2
54 23 2
54 24 3
54 25 1
54 26 1
54 27 3
54 28 1
54 29 1
54 30 3
54 31 1
54 32 1
54 33 2
54 34 2
54 35 2
54 36 2
54 37 3
54 38 1
54 39 2
54 40 1
54 41 1
54 42 1
54 43 3
54 44 1
54 45 2
54 46 1
54 47 2
54 48 3
54 49 1
54 50 1
54 51 2
54 52 2
54 53 1
55 0 1
55 1 2
55 2 2
55 3 3
55 4 2
55 5 1
55 6 1
55 7 3
55 8 2
55 9 2
55 10 3
55 11 2
55 12 2
55 13 1
55 14 1
55 15 2
55 16 2
55 17 1
55 18 1
55 19 3
55 20 2
55 21 2
55 22 1
55 23 2
55 24 2
55 25 1
55 26 1
55 27 2
55 28 3
55 29 3
55 30 3
55 31 3
55 32 3
55 33 1
55 34 1
55 35 2
55 36 3
55 37 3
55 38 3
55 39 3
55 40 1
55 41 2
55 42 1
55 43 3
55 44 2
55 45 3
55 46 3
55 47 3
55 48 1
55 49 2
55 50 1
55 51 2
55 52 3
55 53 2
55 54 3
56 0 1
56 1 2
56 2 1
56 3 2
56 4 1
56 5 3
56 6 2
56 7 2
56 8 2
56 9 3
56 10 3
56 11 1
56 12 1
56 13 1
56 14 3
56 15 2
56 16 3
56 17 2
56 18 2
56 19 3
56 20 2
56 21 3
56 22 3
56 23 1
56 24 2
56 25 2
56 26 1
56 27 2
56 28 1
56 29 2
56 30 3
56 31 1
56 32 1
56 33 3
56 34 1
56 35 3
56 36 2
56 37 1
56 38 1
56 39 3
56 40 3
56 41 2
56 42 3
56 43 2
56 44 2
56 45 1
56 46 1
56 47 3
56 48 2
56 49 3
56 50 3
56 51 3
56 52 2
56 53 3
56 54 2
56 55 1
57 0 1
57 1 2
57 2 3
57 3 1
57 4 1
57 5 3
57 6 3
57 7 2
57 8 1
57 9 3
57 10 3
57 11 1
57 12 2
57 13 1
57 14 1
57 15 3
57 16 2
57 17 2
57 18 2
57 19 3
57 20 3
57 21 3
57 22 3
57 23 1
57 24 3
57 25 2
57 26 2
57 27 1
57 28 3
57 29 2
57 30 2
57 31 2
57 32 3
57 33 2
57 34 1
57 35 2
57 36 1
57 37 3
57 38 1
57 39 2
57 40 3
57 41 3
57 42 1
57 43 3
57 44 1
57 45 1
57 46 2
57 47 1
57 48 3
57 49 1
57 50 3
57 51 1
57 52 2
57 53 3
57 54 1
57 55 1
57 56 2
58 0 1
58 1 3
58 2 3
58 3 2
58 4 2
58 5 3
58 6 3
58 7 1
58 8 1
58 9 3
58 10 1
58 11 3
58 12 1
58 13 3
58 14 2
58 15 2
58 16 2
58 17 2
58 18 2
58 19 3
58 20 1
58 21 2
58 22 3
58 23 3
58 24 1
58 25 1
58 26 2
58 27 2
58 28 2
58 29 2
58 30 2
58 31 3
58 32 1
58 33 1
58 34 2
58 35 2
58 36 2
58 37 3
58 38 1
58 39 2
58 40 2
58 41 2
58 42 1
58 43 3
58 44 2
58 45 2
58 46 1
58 47 3
58 48 1
58 49 1
58 50 3
58 51 2
58 52 3
58 53 3
58 54 3
58 55 2
58 56 3
58 57 3
59 0 2
59 1 2
59 2 3
59 3 3
59 4 2
59 5 3
59 6 3
59 7 2
59 8 2
59 9 1
59 10 3
59 11 3
59 12 2
59 13 3
59 14 1
59 15 1
59 16 3
59 17 3
59 18 2
59 19 3
59 20 1
59 21 2
59 22 2
59 23 3
59 24 2
59 25 1
59 26 1
59 27 2
59 28 3
59 29 2
59 30 3
59 31 1
59 32 2
59 33 2
59 34 2
59 35 1
59 36 2
59 37 1
59 38 1
59 39 1
59 40 2
59 41 1
59 42 1
59 43 1
59 44 3
59 45 3
59 46 1
59 47 1
59 48 2
59 49 1
59 50 1
59 51 2
59 52 2
59 53 3
59 54 1
59 55 3
59 56 1
59 57 1
59 58 3
